(declare-fun _substvar_46_ () Bool)
(declare-const v12 Bool)
(assert (xor true (distinct (/ 96506585216.0 (/ (/ 7056707.0 0.0) 71467.0)) 0.0 (/ 7056707.0 0.0)) false false false false _substvar_46_ v12 true true))
(check-sat)
